p cnf 300 796
-100 -2 -101 0
100 2 -101 0
100 -2 101 0
-100 2 101 0
19 -101 -102 0
-19 101 -102 0
-19 -101 102 0
19 101 102 0
42 -102 -103 0
-42 102 -103 0
-42 -102 103 0
42 102 103 0
33 -103 -104 0
-33 103 -104 0
-33 -103 104 0
33 103 104 0
22 -104 -105 0
-22 104 -105 0
-22 -104 105 0
22 104 105 0
39 -105 -106 0
-39 105 -106 0
-39 -105 106 0
39 105 106 0
65 -106 -107 0
-65 106 -107 0
-65 -106 107 0
65 106 107 0
58 -107 -108 0
-58 107 -108 0
-58 -107 108 0
58 107 108 0
62 -108 -109 0
-62 108 -109 0
-62 -108 109 0
62 108 109 0
80 -109 -110 0
-80 109 -110 0
-80 -109 110 0
80 109 110 0
68 -110 -111 0
-68 110 -111 0
-68 -110 111 0
68 110 111 0
46 -111 -112 0
-46 111 -112 0
-46 -111 112 0
46 111 112 0
99 -112 -113 0
-99 112 -113 0
-99 -112 113 0
99 112 113 0
94 -113 -114 0
-94 113 -114 0
-94 -113 114 0
94 113 114 0
38 -114 -115 0
-38 114 -115 0
-38 -114 115 0
38 114 115 0
57 -115 -116 0
-57 115 -116 0
-57 -115 116 0
57 115 116 0
12 -116 -117 0
-12 116 -117 0
-12 -116 117 0
12 116 117 0
59 -117 -118 0
-59 117 -118 0
-59 -117 118 0
59 117 118 0
25 -118 -119 0
-25 118 -119 0
-25 -118 119 0
25 118 119 0
56 -119 -120 0
-56 119 -120 0
-56 -119 120 0
56 119 120 0
26 -120 -121 0
-26 120 -121 0
-26 -120 121 0
26 120 121 0
77 -121 -122 0
-77 121 -122 0
-77 -121 122 0
77 121 122 0
11 -122 -123 0
-11 122 -123 0
-11 -122 123 0
11 122 123 0
64 -123 -124 0
-64 123 -124 0
-64 -123 124 0
64 123 124 0
96 -124 -125 0
-96 124 -125 0
-96 -124 125 0
96 124 125 0
13 -125 -126 0
-13 125 -126 0
-13 -125 126 0
13 125 126 0
73 -126 -127 0
-73 126 -127 0
-73 -126 127 0
73 126 127 0
8 -127 -128 0
-8 127 -128 0
-8 -127 128 0
8 127 128 0
70 -128 -129 0
-70 128 -129 0
-70 -128 129 0
70 128 129 0
51 -129 -130 0
-51 129 -130 0
-51 -129 130 0
51 129 130 0
24 -130 -131 0
-24 130 -131 0
-24 -130 131 0
24 130 131 0
60 -131 -132 0
-60 131 -132 0
-60 -131 132 0
60 131 132 0
84 -132 -133 0
-84 132 -133 0
-84 -132 133 0
84 132 133 0
93 -133 -134 0
-93 133 -134 0
-93 -133 134 0
93 133 134 0
69 -134 -135 0
-69 134 -135 0
-69 -134 135 0
69 134 135 0
72 -135 -136 0
-72 135 -136 0
-72 -135 136 0
72 135 136 0
91 -136 -137 0
-91 136 -137 0
-91 -136 137 0
91 136 137 0
17 -137 -138 0
-17 137 -138 0
-17 -137 138 0
17 137 138 0
86 -138 -139 0
-86 138 -139 0
-86 -138 139 0
86 138 139 0
55 -139 -140 0
-55 139 -140 0
-55 -139 140 0
55 139 140 0
50 -140 -141 0
-50 140 -141 0
-50 -140 141 0
50 140 141 0
83 -141 -142 0
-83 141 -142 0
-83 -141 142 0
83 141 142 0
54 -142 -143 0
-54 142 -143 0
-54 -142 143 0
54 142 143 0
43 -143 -144 0
-43 143 -144 0
-43 -143 144 0
43 143 144 0
31 -144 -145 0
-31 144 -145 0
-31 -144 145 0
31 144 145 0
28 -145 -146 0
-28 145 -146 0
-28 -145 146 0
28 145 146 0
14 -146 -147 0
-14 146 -147 0
-14 -146 147 0
14 146 147 0
10 -147 -148 0
-10 147 -148 0
-10 -147 148 0
10 147 148 0
61 -148 -149 0
-61 148 -149 0
-61 -148 149 0
61 148 149 0
78 -149 -150 0
-78 149 -150 0
-78 -149 150 0
78 149 150 0
71 -150 -151 0
-71 150 -151 0
-71 -150 151 0
71 150 151 0
48 -151 -152 0
-48 151 -152 0
-48 -151 152 0
48 151 152 0
95 -152 -153 0
-95 152 -153 0
-95 -152 153 0
95 152 153 0
44 -153 -154 0
-44 153 -154 0
-44 -153 154 0
44 153 154 0
29 -154 -155 0
-29 154 -155 0
-29 -154 155 0
29 154 155 0
66 -155 -156 0
-66 155 -156 0
-66 -155 156 0
66 155 156 0
37 -156 -157 0
-37 156 -157 0
-37 -156 157 0
37 156 157 0
7 -157 -158 0
-7 157 -158 0
-7 -157 158 0
7 157 158 0
34 -158 -159 0
-34 158 -159 0
-34 -158 159 0
34 158 159 0
27 -159 -160 0
-27 159 -160 0
-27 -159 160 0
27 159 160 0
21 -160 -161 0
-21 160 -161 0
-21 -160 161 0
21 160 161 0
49 -161 -162 0
-49 161 -162 0
-49 -161 162 0
49 161 162 0
40 -162 -163 0
-40 162 -163 0
-40 -162 163 0
40 162 163 0
4 -163 -164 0
-4 163 -164 0
-4 -163 164 0
4 163 164 0
82 -164 -165 0
-82 164 -165 0
-82 -164 165 0
82 164 165 0
88 -165 -166 0
-88 165 -166 0
-88 -165 166 0
88 165 166 0
53 -166 -167 0
-53 166 -167 0
-53 -166 167 0
53 166 167 0
3 -167 -168 0
-3 167 -168 0
-3 -167 168 0
3 167 168 0
32 -168 -169 0
-32 168 -169 0
-32 -168 169 0
32 168 169 0
67 -169 -170 0
-67 169 -170 0
-67 -169 170 0
67 169 170 0
76 -170 -171 0
-76 170 -171 0
-76 -170 171 0
76 170 171 0
41 -171 -172 0
-41 171 -172 0
-41 -171 172 0
41 171 172 0
5 -172 -173 0
-5 172 -173 0
-5 -172 173 0
5 172 173 0
35 -173 -174 0
-35 173 -174 0
-35 -173 174 0
35 173 174 0
90 -174 -175 0
-90 174 -175 0
-90 -174 175 0
90 174 175 0
1 -175 -176 0
-1 175 -176 0
-1 -175 176 0
1 175 176 0
87 -176 -177 0
-87 176 -177 0
-87 -176 177 0
87 176 177 0
47 -177 -178 0
-47 177 -178 0
-47 -177 178 0
47 177 178 0
45 -178 -179 0
-45 178 -179 0
-45 -178 179 0
45 178 179 0
16 -179 -180 0
-16 179 -180 0
-16 -179 180 0
16 179 180 0
18 -180 -181 0
-18 180 -181 0
-18 -180 181 0
18 180 181 0
30 -181 -182 0
-30 181 -182 0
-30 -181 182 0
30 181 182 0
75 -182 -183 0
-75 182 -183 0
-75 -182 183 0
75 182 183 0
89 -183 -184 0
-89 183 -184 0
-89 -183 184 0
89 183 184 0
85 -184 -185 0
-85 184 -185 0
-85 -184 185 0
85 184 185 0
9 -185 -186 0
-9 185 -186 0
-9 -185 186 0
9 185 186 0
98 -186 -187 0
-98 186 -187 0
-98 -186 187 0
98 186 187 0
20 -187 -188 0
-20 187 -188 0
-20 -187 188 0
20 187 188 0
79 -188 -189 0
-79 188 -189 0
-79 -188 189 0
79 188 189 0
97 -189 -190 0
-97 189 -190 0
-97 -189 190 0
97 189 190 0
92 -190 -191 0
-92 190 -191 0
-92 -190 191 0
92 190 191 0
63 -191 -192 0
-63 191 -192 0
-63 -191 192 0
63 191 192 0
74 -192 -193 0
-74 192 -193 0
-74 -192 193 0
74 192 193 0
15 -193 -194 0
-15 193 -194 0
-15 -193 194 0
15 193 194 0
52 -194 -195 0
-52 194 -195 0
-52 -194 195 0
52 194 195 0
6 -195 -196 0
-6 195 -196 0
-6 -195 196 0
6 195 196 0
23 -196 -197 0
-23 196 -197 0
-23 -196 197 0
23 196 197 0
36 -197 -198 0
-36 197 -198 0
-36 -197 198 0
36 197 198 0
81 -198 -199 0
-81 198 -199 0
-81 -198 199 0
81 198 199 0
95 -32 -200 0
-95 32 -200 0
-95 -32 200 0
95 32 200 0
68 -200 -201 0
-68 200 -201 0
-68 -200 201 0
68 200 201 0
2 -201 -202 0
-2 201 -202 0
-2 -201 202 0
2 201 202 0
27 -202 -203 0
-27 202 -203 0
-27 -202 203 0
27 202 203 0
94 -203 -204 0
-94 203 -204 0
-94 -203 204 0
94 203 204 0
7 -204 -205 0
-7 204 -205 0
-7 -204 205 0
7 204 205 0
22 -205 -206 0
-22 205 -206 0
-22 -205 206 0
22 205 206 0
91 -206 -207 0
-91 206 -207 0
-91 -206 207 0
91 206 207 0
18 -207 -208 0
-18 207 -208 0
-18 -207 208 0
18 207 208 0
85 -208 -209 0
-85 208 -209 0
-85 -208 209 0
85 208 209 0
48 -209 -210 0
-48 209 -210 0
-48 -209 210 0
48 209 210 0
86 -210 -211 0
-86 210 -211 0
-86 -210 211 0
86 210 211 0
16 -211 -212 0
-16 211 -212 0
-16 -211 212 0
16 211 212 0
92 -212 -213 0
-92 212 -213 0
-92 -212 213 0
92 212 213 0
60 -213 -214 0
-60 213 -214 0
-60 -213 214 0
60 213 214 0
39 -214 -215 0
-39 214 -215 0
-39 -214 215 0
39 214 215 0
8 -215 -216 0
-8 215 -216 0
-8 -215 216 0
8 215 216 0
55 -216 -217 0
-55 216 -217 0
-55 -216 217 0
55 216 217 0
12 -217 -218 0
-12 217 -218 0
-12 -217 218 0
12 217 218 0
87 -218 -219 0
-87 218 -219 0
-87 -218 219 0
87 218 219 0
29 -219 -220 0
-29 219 -220 0
-29 -219 220 0
29 219 220 0
45 -220 -221 0
-45 220 -221 0
-45 -220 221 0
45 220 221 0
96 -221 -222 0
-96 221 -222 0
-96 -221 222 0
96 221 222 0
50 -222 -223 0
-50 222 -223 0
-50 -222 223 0
50 222 223 0
58 -223 -224 0
-58 223 -224 0
-58 -223 224 0
58 223 224 0
62 -224 -225 0
-62 224 -225 0
-62 -224 225 0
62 224 225 0
36 -225 -226 0
-36 225 -226 0
-36 -225 226 0
36 225 226 0
100 -226 -227 0
-100 226 -227 0
-100 -226 227 0
100 226 227 0
9 -227 -228 0
-9 227 -228 0
-9 -227 228 0
9 227 228 0
11 -228 -229 0
-11 228 -229 0
-11 -228 229 0
11 228 229 0
72 -229 -230 0
-72 229 -230 0
-72 -229 230 0
72 229 230 0
13 -230 -231 0
-13 230 -231 0
-13 -230 231 0
13 230 231 0
37 -231 -232 0
-37 231 -232 0
-37 -231 232 0
37 231 232 0
38 -232 -233 0
-38 232 -233 0
-38 -232 233 0
38 232 233 0
51 -233 -234 0
-51 233 -234 0
-51 -233 234 0
51 233 234 0
97 -234 -235 0
-97 234 -235 0
-97 -234 235 0
97 234 235 0
90 -235 -236 0
-90 235 -236 0
-90 -235 236 0
90 235 236 0
4 -236 -237 0
-4 236 -237 0
-4 -236 237 0
4 236 237 0
98 -237 -238 0
-98 237 -238 0
-98 -237 238 0
98 237 238 0
79 -238 -239 0
-79 238 -239 0
-79 -238 239 0
79 238 239 0
5 -239 -240 0
-5 239 -240 0
-5 -239 240 0
5 239 240 0
67 -240 -241 0
-67 240 -241 0
-67 -240 241 0
67 240 241 0
44 -241 -242 0
-44 241 -242 0
-44 -241 242 0
44 241 242 0
64 -242 -243 0
-64 242 -243 0
-64 -242 243 0
64 242 243 0
89 -243 -244 0
-89 243 -244 0
-89 -243 244 0
89 243 244 0
49 -244 -245 0
-49 244 -245 0
-49 -244 245 0
49 244 245 0
42 -245 -246 0
-42 245 -246 0
-42 -245 246 0
42 245 246 0
70 -246 -247 0
-70 246 -247 0
-70 -246 247 0
70 246 247 0
41 -247 -248 0
-41 247 -248 0
-41 -247 248 0
41 247 248 0
65 -248 -249 0
-65 248 -249 0
-65 -248 249 0
65 248 249 0
84 -249 -250 0
-84 249 -250 0
-84 -249 250 0
84 249 250 0
31 -250 -251 0
-31 250 -251 0
-31 -250 251 0
31 250 251 0
80 -251 -252 0
-80 251 -252 0
-80 -251 252 0
80 251 252 0
30 -252 -253 0
-30 252 -253 0
-30 -252 253 0
30 252 253 0
59 -253 -254 0
-59 253 -254 0
-59 -253 254 0
59 253 254 0
71 -254 -255 0
-71 254 -255 0
-71 -254 255 0
71 254 255 0
52 -255 -256 0
-52 255 -256 0
-52 -255 256 0
52 255 256 0
83 -256 -257 0
-83 256 -257 0
-83 -256 257 0
83 256 257 0
57 -257 -258 0
-57 257 -258 0
-57 -257 258 0
57 257 258 0
28 -258 -259 0
-28 258 -259 0
-28 -258 259 0
28 258 259 0
76 -259 -260 0
-76 259 -260 0
-76 -259 260 0
76 259 260 0
63 -260 -261 0
-63 260 -261 0
-63 -260 261 0
63 260 261 0
47 -261 -262 0
-47 261 -262 0
-47 -261 262 0
47 261 262 0
73 -262 -263 0
-73 262 -263 0
-73 -262 263 0
73 262 263 0
17 -263 -264 0
-17 263 -264 0
-17 -263 264 0
17 263 264 0
34 -264 -265 0
-34 264 -265 0
-34 -264 265 0
34 264 265 0
20 -265 -266 0
-20 265 -266 0
-20 -265 266 0
20 265 266 0
81 -266 -267 0
-81 266 -267 0
-81 -266 267 0
81 266 267 0
77 -267 -268 0
-77 267 -268 0
-77 -267 268 0
77 267 268 0
25 -268 -269 0
-25 268 -269 0
-25 -268 269 0
25 268 269 0
35 -269 -270 0
-35 269 -270 0
-35 -269 270 0
35 269 270 0
15 -270 -271 0
-15 270 -271 0
-15 -270 271 0
15 270 271 0
6 -271 -272 0
-6 271 -272 0
-6 -271 272 0
6 271 272 0
10 -272 -273 0
-10 272 -273 0
-10 -272 273 0
10 272 273 0
88 -273 -274 0
-88 273 -274 0
-88 -273 274 0
88 273 274 0
1 -274 -275 0
-1 274 -275 0
-1 -274 275 0
1 274 275 0
14 -275 -276 0
-14 275 -276 0
-14 -275 276 0
14 275 276 0
78 -276 -277 0
-78 276 -277 0
-78 -276 277 0
78 276 277 0
56 -277 -278 0
-56 277 -278 0
-56 -277 278 0
56 277 278 0
3 -278 -279 0
-3 278 -279 0
-3 -278 279 0
3 278 279 0
99 -279 -280 0
-99 279 -280 0
-99 -279 280 0
99 279 280 0
69 -280 -281 0
-69 280 -281 0
-69 -280 281 0
69 280 281 0
21 -281 -282 0
-21 281 -282 0
-21 -281 282 0
21 281 282 0
24 -282 -283 0
-24 282 -283 0
-24 -282 283 0
24 282 283 0
93 -283 -284 0
-93 283 -284 0
-93 -283 284 0
93 283 284 0
54 -284 -285 0
-54 284 -285 0
-54 -284 285 0
54 284 285 0
82 -285 -286 0
-82 285 -286 0
-82 -285 286 0
82 285 286 0
75 -286 -287 0
-75 286 -287 0
-75 -286 287 0
75 286 287 0
19 -287 -288 0
-19 287 -288 0
-19 -287 288 0
19 287 288 0
26 -288 -289 0
-26 288 -289 0
-26 -288 289 0
26 288 289 0
23 -289 -290 0
-23 289 -290 0
-23 -289 290 0
23 289 290 0
61 -290 -291 0
-61 290 -291 0
-61 -290 291 0
61 290 291 0
43 -291 -292 0
-43 291 -292 0
-43 -291 292 0
43 291 292 0
40 -292 -293 0
-40 292 -293 0
-40 -292 293 0
40 292 293 0
46 -293 -294 0
-46 293 -294 0
-46 -293 294 0
46 293 294 0
66 -294 -295 0
-66 294 -295 0
-66 -294 295 0
66 294 295 0
33 -295 -296 0
-33 295 -296 0
-33 -295 296 0
33 295 296 0
74 -296 -297 0
-74 296 -297 0
-74 -296 297 0
74 296 297 0
53 -297 -298 0
-53 297 -298 0
-53 -297 298 0
53 297 298 0
-199 299 0
-299 298 0
-298 300 0
-300 199 0
